50
    50     5    72    27    62    81    90    73    67    43    96    46    76    78    57    55    40    39    33    20    52    43    75    82    45    75    23    94    92    83     8    26     7    82    53    62    46    54    70     4     3    44    62    69    14    64    23    87    57    92
     6     1    10     5     3     3     2     4     6     1     4     1     6     6     6     2     7     5     4     6     5     7    10     9     8     1     5     8     6     4     7     9     1     5    10    10     8     9     7     5     4     5     5     1     8     9     2     1    10     7
     0     0     0     0     0     0   107    28   168     0   239   202     0    76     0     0     0    24     0    25     0     0   156    74     0     0   244     0   247    67     0   225   237   228     0     0    90    50     0     0     0     0     0   189   173   111     0     0     0   210
